c this file is generated by buildmiter
c generated on Thu Apr  7 00:18:46 2016
p cnf 55 136
-1 -3 -10 0
1 10 0
3 10 0
-3 -4 -12 0
3 12 0
4 12 0
-2 -12 -11 0
2 11 0
12 11 0
-12 -5 -13 0
12 13 0
5 13 0
-16 -11 -8 0
16 8 0
11 8 0
-11 -13 -9 0
11 9 0
13 9 0
6 14 0
-6 -14 0
7 15 0
-7 -15 0
-1 -14 17 0
1 -17 0
14 -17 0
-5 -14 18 0
5 -18 0
14 -18 0
-4 -6 19 0
4 -19 0
6 -19 0
-10 -6 20 0
10 -20 0
6 -20 0
-17 -15 26 0
17 -26 0
15 -26 0
-18 -7 24 0
18 -24 0
7 -24 0
-19 -15 22 0
19 -22 0
15 -22 0
-20 -7 21 0
20 -21 0
7 -21 0
21 22 -23 0
-21 23 0
-22 23 0
23 24 -25 0
-23 25 0
-24 25 0
26 25 -16 0
-26 16 0
-25 16 0
c The second camouflage circuit:
-27 -29 -36 0
27 36 0
29 36 0
-29 -30 -38 0
29 38 0
30 38 0
-28 -38 -37 0
28 37 0
38 37 0
-38 -31 -39 0
38 39 0
31 39 0
-42 -37 -34 0
42 34 0
37 34 0
-37 -39 -35 0
37 35 0
39 35 0
32 40 0
-32 -40 0
33 41 0
-33 -41 0
-27 -40 43 0
27 -43 0
40 -43 0
-31 -40 44 0
31 -44 0
40 -44 0
-30 -32 45 0
30 -45 0
32 -45 0
-36 -32 46 0
36 -46 0
32 -46 0
-43 -41 52 0
43 -52 0
41 -52 0
-44 -33 50 0
44 -50 0
33 -50 0
-45 -41 48 0
45 -48 0
41 -48 0
-46 -33 47 0
46 -47 0
33 -47 0
47 48 -49 0
-47 49 0
-48 49 0
49 50 -51 0
-49 51 0
-50 51 0
52 51 -42 0
-52 42 0
-51 42 0
c Force PIs of 2 ckts to be the same:
1 -27 0
-1 27 0
2 -28 0
-2 28 0
3 -29 0
-3 29 0
4 -30 0
-4 30 0
5 -31 0
-5 31 0
c XOR outputs of 2 ckts:
-8 -34 -53 0
8 34 -53 0
8 -34 53 0
-8 34 53 0
-9 -35 -54 0
9 35 -54 0
9 -35 54 0
-9 35 54 0
c The last OR gate of the miter:
53 54 -55 0
-53 55 0
-54 55 0
55 0
c The CONST constrainsc this is forbidden constrains
6 -7  0
-6 7  0
